gen	cost
1	21001
2	20856
3	20745
4	20689
5	20588
6	20320
7	20212
8	20177
9	20169
10	20068
11	19976
12	19783
13	19737
14	19731
15	19616
16	19456
17	19357
18	19327
19	19295
20	19261
21	19128
22	19110
23	18987
24	18938
25	18901
26	18872
27	18869
28	18851
29	18804
30	18767
31	18655
32	18646
33	18602
34	18592
35	18524
36	18503
37	18469
38	18433
39	18415
40	18412
41	18391
42	18358
43	18349
44	18324
45	18319
46	18311
47	18273
48	18233
49	18229
50	18221

